Gurobi Optimizer version 9.1.2 build v9.1.2rc0 (linux64)
Thread count: 36 physical cores, 72 logical processors, using up to 32 threads
Optimize a model with 12 rows, 57 columns and 590 nonzeros
Model fingerprint: 0xf32eec78
Model has 47 quadratic constraints
Coefficient statistics:
  Matrix range     [2e-05, 3e+00]
  QMatrix range    [1e+00, 1e+00]
  QLMatrix range   [1e+00, 1e+00]
  Objective range  [8e-03, 7e-01]
  Bounds range     [1e+00, 1e+00]
  RHS range        [1e+00, 1e+00]
Presolve removed 9 rows and 0 columns

Continuous model is non-convex -- solving as a MIP.

Presolve removed 9 rows and 0 columns
Presolve time: 0.00s
Presolved: 189 rows, 57 columns, 443 nonzeros
Presolved model has 47 bilinear constraint(s)
Variable types: 57 continuous, 0 integer (0 binary)

Root relaxation: objective -1.743721e+00, 44 iterations, 0.00 seconds

    Nodes    |    Current Node    |     Objective Bounds      |     Work
 Expl Unexpl |  Obj  Depth IntInf | Incumbent    BestBd   Gap | It/Node Time

     0     0   -1.74372    0   38          -   -1.74372      -     -    0s
H    0     0                       0.6147548   -1.74372   384%     -    0s
     0     0   -1.64739    0    1    0.61475   -1.64739   368%     -    0s
H    0     0                      -1.6450460   -1.64739  0.14%     -    0s
     0     0     cutoff    0        -1.64505   -1.64505  0.00%     -    0s

Cutting planes:
  RLT: 25
  BQP: 3

Explored 1 nodes (76 simplex iterations) in 0.01 seconds
Thread count was 32 (of 72 available processors)

Solution count 2: -1.64505 0.614755 
No other solutions better than -1.64505

Optimal solution found (tolerance 1.00e-04)
Best objective -1.645045978473e+00, best bound -1.645045978473e+00, gap 0.0000%

User-callback calls 78, time in user-callback 0.00 sec
Gurobi Optimizer version 9.1.2 build v9.1.2rc0 (linux64)
Thread count: 36 physical cores, 72 logical processors, using up to 32 threads
Optimize a model with 24 rows, 125 columns and 2580 nonzeros
Model fingerprint: 0x42c7f89b
Model has 105 quadratic constraints
Coefficient statistics:
  Matrix range     [7e-06, 5e+01]
  QMatrix range    [1e+00, 1e+00]
  QLMatrix range   [1e+00, 1e+00]
  Objective range  [1e-02, 1e+00]
  Bounds range     [1e+00, 1e+00]
  RHS range        [1e+00, 1e+00]
Presolve removed 10 rows and 0 columns

Continuous model is non-convex -- solving as a MIP.

Presolve removed 10 rows and 0 columns
Presolve time: 0.00s
Presolved: 429 rows, 125 columns, 2142 nonzeros
Presolved model has 105 bilinear constraint(s)
Variable types: 125 continuous, 0 integer (0 binary)

Root relaxation: objective -6.273640e+00, 144 iterations, 0.00 seconds

    Nodes    |    Current Node    |     Objective Bounds      |     Work
 Expl Unexpl |  Obj  Depth IntInf | Incumbent    BestBd   Gap | It/Node Time

     0     0   -6.27364    0   75          -   -6.27364      -     -    0s
H    0     0                       0.2272685   -6.27364  2860%     -    0s
     0     0   -4.72834    0   83    0.22727   -4.72834  2181%     -    0s
H    0     0                      -1.0468723   -4.72834   352%     -    0s
     0     0   -4.65073    0   70   -1.04687   -4.65073   344%     -    0s
     0     0   -4.47709    0   61   -1.04687   -4.47709   328%     -    0s
H    0     0                      -2.0148299   -4.47709   122%     -    0s
     0     0   -4.47433    0   80   -2.01483   -4.47433   122%     -    0s
     0     0   -4.43410    0   61   -2.01483   -4.43410   120%     -    0s
     0     0   -4.43037    0   61   -2.01483   -4.43037   120%     -    0s
     0     0   -4.42038    0   61   -2.01483   -4.42038   119%     -    0s
     0     0   -4.42001    0   61   -2.01483   -4.42001   119%     -    0s
     0     0   -4.41818    0   61   -2.01483   -4.41818   119%     -    0s
     0     0   -4.41806    0   61   -2.01483   -4.41806   119%     -    0s
     0     0   -4.41724    0   61   -2.01483   -4.41724   119%     -    0s
H    0     0                      -2.0498895   -4.41724   115%     -    0s
H    0     0                      -3.0062758   -4.41724  46.9%     -    0s
H    0     0                      -3.0108521   -4.41724  46.7%     -    0s
     0     2   -4.41724    0   61   -3.01085   -4.41724  46.7%     -    0s
*  749   690              27      -3.0121172   -3.92855  30.4%  26.6    0s
*  751   690              28      -3.0121635   -3.92855  30.4%  26.6    0s
*  769   690              27      -3.6260148   -3.92855  8.34%  26.2    0s
*  884   653              20      -3.6716281   -3.83414  4.43%  24.5    0s
*  885   653              20      -3.6719571   -3.83414  4.42%  24.4    0s
* 1101   742              22      -3.6719763   -3.77730  2.87%  21.5    0s
* 1102   742              22      -3.6724867   -3.77730  2.85%  21.5    0s
* 1106   742              23      -3.7126524   -3.77730  1.74%  21.5    0s
* 1107   742              23      -3.7126551   -3.77730  1.74%  21.4    0s
* 1142   742              23      -3.7126558   -3.77730  1.74%  20.9    0s
* 1342   451              18      -3.7133539   -3.73087  0.47%  18.9    0s
* 1539   230              17      -3.7134826   -3.73087  0.47%  16.5    0s
* 1541   230              18      -3.7136676   -3.73087  0.46%  16.5    0s
* 1548   230              19      -3.7144823   -3.73087  0.44%  16.4    0s
* 1550   230              20      -3.7146035   -3.73087  0.44%  16.4    0s
* 1888    38              18      -3.7147348   -3.72124  0.18%  13.7    0s
* 1907    38              18      -3.7147973   -3.71570  0.02%  13.6    0s
* 1919    38              21      -3.7149080   -3.71570  0.02%  13.5    0s
* 1934    38              21      -3.7149532   -3.71570  0.02%  13.4    0s
* 1940    38              20      -3.7149749   -3.71570  0.02%  13.4    0s
* 2123     7              19      -3.7149800   -3.71544  0.01%  12.3    0s

Cutting planes:
  RLT: 66
  BQP: 8
  PSD: 65

Explored 2178 nodes (26536 simplex iterations) in 0.65 seconds
Thread count was 32 (of 72 available processors)

Solution count 10: -3.71498 -3.71497 -3.71495 ... -3.71348

Optimal solution found (tolerance 1.00e-04)
Best objective -3.714979983481e+00, best bound -3.715196798939e+00, gap 0.0058%

User-callback calls 4637, time in user-callback 0.00 sec



objective value: -3.714979983481223
objective bound: -3.7151967989388375
x_opt: [1.0, 0.0, 1.0, 0.0, 0.20346898299025235, 0.0, 1.0, 1.0, 0.4478571438165974, 0.0, 0.0, 0.0, 0.8045099043388648, 0.0, 0.4555355508803461, 0.3219934675008454, 0.0, 0.0, 0.0, 0.0]
GUROBI solution time: 0.6455190181732178




